# Objective value = 557
TOL203G,1
BYG201G,1
LIF410G,1
LIF243F,1
JAR619G,1
HBV601G,2
UAU206M,2
EDL205G,2
BYG401G,3
LIF214G,3
LIF615M,3
RAF201G,3
LAN410G,3
LAN209F,3
LAN401G,3
EFN408G,3
LEF406G,4
IDN401G,4
EDL612M,4
EDL203G,4
LIF633G,5
LIF227F,5
STA205G,5
EFN406G,5
RAF404G,5
VEL215F,5
STA403M,6
LIF201G,6
REI201G,6
VEL402G,6
LEF616M,6
UMV203M,6
EFN207G,6
FER609G,6
FER211F,6
VEL601G,7
LAN203G,7
STA209G,7
EDL403G,7
VEL218F,7
TOL203F,8
JAR211G,8
RAF401G,8
LAN219G,8
EFN202G,8
TOL403G,8
HBV401G,9
JAR253F,9
EDL402M,9
BYG202M,9
EFN208G,9
LIF401G,10
EFN404G,10
HBV201G,10
BYG203M,10
RAF616M,11
LAN205G,11
JAR212G,11
UMV213F,12
EDL204G,12
RAF402G,12
EDL401G,12
IDN402G,12
STA202G,13
LIF412M,13
JAR417G,13
UMV203G,13
TOV201G,13
HBV402G,13
JAR418G,14
VEL202G,14
JAR415G,14
FER208G,14
UMV201G,14
VEL405G,14
IDN209F,15
STA401G,15
LIF215G,15
JAR611G,15
TOL203M,15
RAF403G,16
LEF617M,16
UAU214M,16
IDN603G,16
STA203G,16
MAS201F,16
STA418M,16
EFN205G,17
EFN214G,17
FER603M,17
STA405G,17
LIF635G,17
REI202M,18
STA207G,18
EDL201G,18
EDL206G,18
BYG201M,18
EFN612M,18
FER409G,19
FER210F,19
JAR617G,19
BYG601G,19
JAR202G,19
HBV203F,19
VEL401G,19
STA411G,19
LAN604M,20
TOL401G,20
JED201G,20
EDL402G,20
LIF403G,20
BYG603G,21
IDN403G,21
TOV602M,21
EFN410G,22
RAF601G,22
TOL202M,22
LIF614M,22
VEL201G,22
